50 115
81 272 8
84 277 2
84 272 2
113 336 1
100 221 2
113 163 1
116 155 4
113 142 1
130 201 1
62 132 4
70 191 4
66 193 2
67 190 2
64 241 2
152 231 4
59 162 2
92 155 2
80 154 2
89 299 2
106 240 2
64 123 6
51 207 2
92 213 2
51 206 2
53 208 2
94 188 3
77 131 2
101 168 2
70 148 2
55 253 2
56 257 2
42 92 1
90 92 1
62 233 2
78 231 4
61 231 2
45 231 2
68 152 1
82 286 1
45 93 1
74 196 6
75 87 2
65 177 2
112 133 1
60 232 2
63 232 2
68 307 2
83 305 2
83 307 2
101 110 2
500 1000 
500 1000 
500 1000 
500 1000 
500 1000 
500 1000 
500 1000 
500 1000 
500 1000 
500 1000 
500 1000 
500 1000 
500 1000 
500 1000 
500 1000 
500 1000 
500 1000 
500 1000 
500 1000 
500 1000 
500 1000 
500 1000 
500 1000 
500 1000 
500 1000 
500 1000 
500 1000 
500 1000 
500 1000 
500 1000 
500 1000 
500 1000 
500 1000 
500 1000 
500 1000 
500 1000 
500 1000 
500 1000 
500 1000 
500 1000 
500 1000 
500 1000 
500 1000 
500 1000 
500 1000 
500 1000 
500 1000 
500 1000 
500 1000 
500 1000 
500 1000 
500 1000 
500 1000 
500 1000 
500 1000 
500 1000 
500 1000 
500 1000 
500 1000 
500 1000 
500 1000 
500 1000 
500 1000 
500 1000 
500 1000 
500 1000 
500 1000 
500 1000 
500 1000 
500 1000 
500 1000 
500 1000 
500 1000 
500 1000 
500 1000 
500 1000 
500 1000 
500 1000 
500 1000 
500 1000 
500 1000 
500 1000 
500 1000 
500 1000 
500 1000 
500 1000 
500 1000 
500 1000 
500 1000 
500 1000 
500 1000 
500 1000 
500 1000 
500 1000 
500 1000 
500 1000 
500 1000 
500 1000 
500 1000 
500 1000 
500 1000 
500 1000 
500 1000 
500 1000 
500 1000 
500 1000 
500 1000 
500 1000 
500 1000 
500 1000 
500 1000 
500 1000 
500 1000 
500 1000 
500 1000 
